c --- [ banner ] -------------------------------------------------------------
c 
c CaDiCaL Radically Simplified CDCL SAT Solver
c Copyright (c) 2016-2021 A. Biere, M. Fleury, N. Froleyks
c 
c Version 1.5.2 9c38a080b32c28d805e8e6ca21849856b0cda605
c g++ (Ubuntu 7.5.0-3ubuntu1~18.04) 7.5.0 -Wall -Wextra -O3 -DNDEBUG
c Wed Feb 16 23:15:36 EST 2022 Linux fac-vanhoeve01 5.4.0-99-generic x86_64
c 
c --- [ limit ] --------------------------------------------------------------
c 
c setting time limit to 600 seconds real time (due to '-t 600')
c setting conflict limit to 1000000000 conflicts (due to '1000000000')
c 
c --- [ parsing input ] ------------------------------------------------------
c 
c reading DIMACS file from 'ddfwcnfs/queen13_13.col_13.cnf'
c opening file to read 'ddfwcnfs/queen13_13.col_13.cnf'
c found 'p cnf 2197 38519' header
c parsed 38519 clauses in 0.02 seconds process time
c closing file 'ddfwcnfs/queen13_13.col_13.cnf'
c after reading 502546 bytes 0.5 MB
c 
c --- [ options ] ------------------------------------------------------------
c 
c all options are set to their default value
c 
c --- [ solving ] ------------------------------------------------------------
c 
c time measured in process time since initialization
c 
c  seconds  reductions  redundant  irredundant
c         MB    restarts       trail     variables
c          level   conflicts       glue       remaining
c 
c *  0.02  7  0 0   0    0    0  0% 0 38350 2028 92%
c {  0.02  7  0 0   0    0    0  0% 0 38350 2028 92%
c -  0.04  8 12 1   0  300  112 28% 9 38350 2028 92%
c -  0.07  9 12 2  17  900  339 28% 9 38350 2028 92%
c }  0.07  9 11 2  17 1000  388 28% 9 38350 2028 92%
c [  0.07  9  0 2  17 1000  388  0% 0 38350 2028 92%
c O  0.07  9 23 2  17 1002  390 32% 12 38350 2028 92%
c -  0.10  9 15 3  17 1800  693 28% 12 38350 2028 92%
c ]  0.13  9 16 3  18 3004 1558 27% 13 38350 2028 92%
c {  0.13  9 11 3  18 3004 1558 28% 9 38350 2028 92%
c -  0.14  9 11 4  18 3004 1114 28% 9 38350 2028 92%
c F  0.14  9 11 4  18 3005 1115 28% 9 38350 2028 92%
c -  0.18  9 12 5  89 4504 1002 28% 10 38350 2028 92%
c #  0.34  9 24 5 433 6006 2394 45% 15 38350 2028 92%
c -  0.36  9 23 6 440 6304 1829 44% 15 38350 2028 92%
c }  0.38  9 22 6 440 7004 2203 42% 14 38350 2028 92%
c [  0.38  9 16 6 440 7004 2203 27% 13 38350 2028 92%
c -  0.44  9 20 7 441 8406 1943 33% 16 38350 2028 92%
c s  0.45 10 20 7 441 8483 1751 34% 16 38350 2028 92%
c e  0.55 10 20 7 441 8483   87 34% 16 28178 1560 71%
c 
c  seconds  reductions  redundant   irredundant
c         MB    restarts       trail      variables
c          level   conflicts       glue        remaining
c 
c ^  0.57 10 20 7 441 8483   87 34% 16 28178 1560 71%
c I  0.63  9 21 7 442 10009 1200 28% 16 28178 1560 71%
c -  0.74 10 39 8 443 10806 1931 48% 23 28178 1560 71%
c -  1.12 11 71 9 445 13507 3181 67% 37 28178 1560 71%
c ]  1.37 11 81 9 445 15004 4646 71% 42 28178 1560 71%
c {  1.37 11 22 9 445 15004 4646 60% 14 28178 1560 71%
c B  1.37 11 22 9 446 15013 4654 60% 15 28178 1560 71%
c -  1.59 11 31 10 816 16509 3945 64% 18 28178 1560 71%
c -  1.98 11 38 11 1505 19810 3870 66% 21 28178 1560 71%
c W  2.19 11 40 11 1800 21015 5031 67% 22 28178 1560 71%
c -  2.33 12 37 12 1947 23410 3825 62% 21 28178 1560 71%
c s  2.42 12 34 12 1947 25185 4388 57% 20 28178 1560 71%
c s  2.50 12 34 12 1947 25185 3895 57% 20 28178 1560 71%
c ^  2.50 12 34 12 1947 25185 3895 57% 20 28178 1560 71%
c -  2.58 12 32 13 1947 27310 3404 53% 19 28178 1560 71%
c F  2.61 12 31 13 1947 28016 3895 51% 18 28178 1560 71%
c }  2.74 12 29 13 1947 31005 6200 47% 17 28178 1560 71%
c [  2.74 12 81 13 1947 31005 6200 71% 42 28178 1560 71%
c -  2.77 12 78 14 1947 31510 4105 68% 40 28178 1560 71%
c -  2.94 12 60 15 1950 36011 4480 50% 32 28178 1560 71%
c 
c  seconds  reductions     redundant   irredundant
c         MB     restarts         trail      variables
c          level      conflicts       glue        remaining
c 
c B  2.95 12 60 15 1950 36018 4485 50% 32 28178 1560 71%
c -  3.55 15 77 16 1953 40813 5736 60% 37 28178 1560 71%
c W  4.13 15 75 16 1954 45019 9724 65% 38 28178 1560 71%
c -  4.26 13 75 17 1955 45914 6502 66% 38 28178 1560 71%
c s  4.88 13 72 17 1955 50235 10031 69% 39 28178 1560 71%
c w  4.91 13 72 17 1955 50235 10031 69% 39 28178 1560 71%
c s  4.99 13 72 17 1955 50235 9888 69% 39 28178 1560 71%
c ^  5.00 13 72 17 1955 50235 9888 69% 39 28178 1560 71%
c -  5.16 14 71 18 1955 51316 6945 69% 39 28178 1560 71%
c O  5.60 14 70 18 1956 55020 10331 71% 39 28178 1560 71%
c -  5.69 14 66 19 1958 57016 6901 68% 37 28178 1560 71%
c ]  5.91 14 58 19 1962 63005 10825 60% 34 28178 1560 71%
c {  5.91 14 29 19 1962 63005 10825 47% 17 28178 1560 71%
c -  5.92 14 29 20 1962 63016 5829 47% 17 28178 1560 71%
c B  6.05 14 27 20 1971 66022 7836 44% 17 28178 1560 71%
c -  6.23 14 27 21 2113 69317 6181 42% 17 28178 1560 71%
c -  6.52 14 24 22 2113 75918 6099 38% 15 28178 1560 71%
c W  6.68 14 23 22 2113 78024 7513 37% 15 28178 1560 71%
c -  6.89 14 22 23 2230 82819 6275 36% 15 28178 1560 71%
c s  6.94 14 22 23 2230 83635 6080 36% 15 28178 1560 71%
c 
c  seconds  reductions     redundant   irredundant
c         MB     restarts         trail      variables
c          level      conflicts       glue        remaining
c 
c w  6.96 14 22 23 2230 83635 6080 36% 15 28178 1560 71%
c s  7.03 14 22 23 2230 83635 5797 36% 15 28178 1560 71%
c ^  7.03 14 22 23 2230 83635 5797 36% 15 28178 1560 71%
c -  7.36 14 22 24 2515 90023 6188 35% 15 28178 1560 71%
c #  7.39 14 22 24 2515 91025 6662 35% 14 28178 1560 71%
c -  7.60 14 21 25 2524 97525 6031 34% 14 28178 1560 71%
c B  7.94 14 19 25 2524 105032 11050 32% 14 28178 1560 71%
c -  7.97 14 20 26 2549 105327 7083 32% 14 28178 1560 71%
c -  8.25 14 19 27 2601 113428 6313 31% 13 28178 1560 71%
c W  8.62 14 18 27 2657 120033 10230 30% 13 28178 1560 71%
c -  8.71 14 18 28 2663 121831 6835 30% 13 28178 1560 71%
c s  8.85 14 18 28 2678 125385 8290 30% 13 28178 1560 71%
c s  8.94 14 18 28 2678 125385 8071 30% 13 28178 1560 71%
c ^  8.95 14 18 28 2678 125385 8071 30% 13 28178 1560 71%
c }  9.01 14 17 28 2678 127007 9006 30% 13 28178 1560 71%
c [  9.01 14 58 28 2678 127007 9006 60% 34 28178 1560 71%
c -  9.17 14 55 29 2678 130532 7284 56% 32 28178 1560 71%
c B  9.43 14 51 29 2683 136034 11179 52% 30 28178 1560 71%
c -  9.89 16 57 30 2685 139533 9614 54% 33 28178 1560 71%
c - 11.36 17 62 31 2686 148833 11269 60% 37 28178 1560 71%
c 
c  seconds  reductions       redundant   irredundant
c         MB     restarts           trail      variables
c          level      conflicts         glue        remaining
c 
c W 12.20 17 64 31 2687 153036 15102 61% 38 28178 1560 71%
c - 13.27 17 63 32 2687 158433 12176 64% 39 28178 1560 71%
c - 14.91 15 63 33 2688 168337 12668 67% 40 28178 1560 71%
c I 15.35 15 64 33 2690 171040 14950 67% 41 28178 1560 71%
c s 16.02 15 71 33 2693 175488 18880 68% 44 28178 1560 71%
c w 16.08 15 71 33 2693 175488 18878 68% 44 28178 1560 71%
c s 16.18 15 71 33 2693 175488 18826 68% 44 28178 1560 71%
c - 16.70 20 72 34 2694 178539 13612 69% 45 28178 1560 71%
c - 18.68 20 76 35 2701 189039 13965 71% 48 28178 1560 71%
c B 18.86 20 76 35 2701 190041 14910 72% 48 28178 1560 71%
c - 20.84 20 78 36 2702 199840 14550 73% 50 28178 1560 71%
c W 23.10 20 80 36 2709 210044 23657 75% 53 28178 1560 71%
c - 23.35 21 80 37 2709 210940 14980 75% 53 28178 1560 71%
c - 25.93 18 80 38 2716 222340 14745 76% 54 28178 1560 71%
c O 27.84 18 80 38 2717 231047 22140 77% 55 28178 1560 71%
c - 27.99 21 77 39 2717 234042 14932 75% 53 28178 1560 71%
c - 28.57 21 69 40 2718 246043 12100 67% 48 28178 1560 71%
c B 28.89 21 66 40 2719 253049 17093 63% 45 28178 1560 71%
c ] 29.11 21 69 40 2719 255007 18964 64% 46 28178 1560 71%
c { 29.11 21 17 40 2719 255007 18964 30% 13 28178 1560 71%
c 
c  seconds  reductions       redundant   irredundant
c         MB     restarts           trail      variables
c          level      conflicts         glue        remaining
c 
c - 29.30 21 18 41 2919 258343 12334 30% 13 28178 1560 71%
c - 29.82 21 17 42 3100 270943 10654 29% 13 28178 1560 71%
c F 30.10 21 17 42 3299 276050 14116 29% 13 28178 1560 71%
c - 30.39 21 17 43 3326 283847 10965 29% 13 28178 1560 71%
c - 30.95 21 16 44 3439 297049 10344 28% 12 28178 1560 71%
c B 31.07 21 16 44 3474 300052 11810 28% 12 28178 1560 71%
c - 31.62 21 17 45 3935 310551 11081 29% 12 28178 1560 71%
c - 32.21 21 16 46 4087 324352 11268 28% 12 28178 1560 71%
c W 32.51 21 16 46 4101 325053 11668 28% 12 28178 1560 71%
c - 33.17 21 16 47 4691 338452 11923 28% 12 28178 1560 71%
c # 33.64 21 16 47 5026 351057 19088 28% 12 28178 1560 71%
c - 33.71 21 16 48 5051 352852 11664 28% 12 28178 1560 71%
c - 34.53 21 17 49 5933 367552 12826 29% 13 28178 1560 71%
c B 34.89 21 17 49 6033 378058 18620 28% 13 28178 1560 71%
c - 35.44 21 18 50 6855 382552 12899 30% 13 28178 1560 71%
c - 36.73 21 20 51 8645 397856 14562 33% 14 28178 1560 71%
c W 37.86 21 22 51 9725 406060 20852 35% 15 28178 1560 71%
c - 38.20 21 21 52 9869 413456 14934 34% 15 28178 1560 71%
c - 38.90 21 20 53 9887 429357 14291 33% 14 28178 1560 71%
c F 39.17 21 20 53 9889 435061 17786 32% 14 28178 1560 71%
c 
c  seconds  reductions       redundant   irredundant
c         MB     restarts           trail      variables
c          level      conflicts         glue        remaining
c 
c - 39.61 21 19 54 9907 445557 14229 31% 14 28178 1560 71%
c - 40.43 21 18 55 9983 462057 14042 30% 13 28178 1560 71%
c B 40.55 21 18 55 9983 465062 15576 30% 13 28178 1560 71%
c - 41.09 21 18 56 10356 478857 13865 29% 13 28178 1560 71%
c s 41.11 21 18 56 10356 478857 11197 29% 13 28178 1560 71%
c w 41.18 21 18 56 10356 478857 11196 29% 13 28178 1560 71%
c - 41.97 21 17 57 10458 495958 13451 28% 13 28178 1560 71%
c W 42.40 21 17 57 10458 496063 13505 28% 13 28178 1560 71%
c } 43.13 21 16 57 10575 511007 22213 28% 12 28178 1560 71%
c [ 43.13 21 69 57 10575 511007 22213 64% 46 28178 1560 71%
c - 43.27 21 72 58 10575 513359 15332 64% 45 28178 1560 71%
c W 44.80 21 82 58 10575 528064 26469 60% 43 28178 1560 71%
c - 45.08 21 81 59 10575 531060 18366 59% 43 28178 1560 71%
c - 46.69 21 73 60 10582 549060 19690 53% 40 28178 1560 71%
c I 47.75 21 68 60 10589 561065 28537 49% 38 28178 1560 71%
c - 48.94 28 92 61 10590 567360 21823 51% 47 28178 1560 71%
c - 53.04 32 113 62 10598 585960 23450 56% 59 28178 1560 71%
c B 54.72 32 110 62 10604 595066 31545 59% 58 28178 1560 71%
c - 56.62 26 105 63 10605 604860 23216 61% 57 28178 1560 71%
c - 59.53 32 95 64 10607 624060 23723 65% 54 28178 1560 71%
c 
c  seconds  reductions        redundant   irredundant
c         MB      restarts           trail      variables
c          level       conflicts         glue        remaining
c 
c W 60.91 32 93 64 10612 630067 29060 66% 53 28178 1560 71%
c - 63.49 32 87 65 10619 643560 24342 68% 52 28178 1560 71%
c - 66.66 32 80 66 10627 663360 24471 71% 50 28178 1560 71%
c O 67.06 32 79 66 10628 666068 26717 71% 49 28178 1560 71%
c - 67.90 32 69 67 10636 683461 21808 64% 44 28178 1560 71%
c B 68.88 32 61 67 10637 703069 35122 56% 39 28178 1560 71%
c - 68.98 32 62 68 10637 703861 20931 56% 39 28178 1560 71%
c - 71.57 33 70 69 10638 724561 24369 61% 43 28178 1560 71%
c W 74.84 33 72 69 10639 741071 39515 64% 45 28178 1560 71%
c - 75.87 40 72 70 10639 745561 27004 65% 45 28178 1560 71%
c - 79.73 40 69 71 10639 766863 28579 69% 45 28178 1560 71%
c I 81.75 40 67 71 10639 780073 40510 71% 44 28178 1560 71%
c - 82.77 40 86 72 10639 788463 28623 71% 47 28178 1560 71%
c - 86.84 55 121 73 10643 810364 28807 73% 57 28178 1560 71%
c B 88.22 55 118 73 10648 820074 37602 74% 57 28178 1560 71%
c - 89.84 41 114 74 10654 832564 27671 75% 57 28178 1560 71%
c s 89.89 41 114 74 10654 832564 25944 75% 57 28178 1560 71%
c w 89.98 41 114 74 10654 832564 25944 75% 57 28178 1560 71%
c - 93.90 41 105 75 10664 855065 27983 77% 56 28178 1560 71%
c W 95.55 41 102 75 10668 861075 32905 77% 56 28178 1560 71%
c 
c  seconds  reductions        redundant   irredundant
c         MB      restarts           trail      variables
c          level       conflicts         glue        remaining
c 
c - 98.41 41 95 76 10670 877865 28433 78% 54 28178 1560 71%
c - 103.57 41 87 77 10677 900966 29328 79% 52 28178 1560 71%
c O 104.03 41 87 77 10679 903079 31197 79% 52 28178 1560 71%
c - 105.25 41 75 78 10688 924367 25049 68% 45 28178 1560 71%
c B 106.73 41 64 78 10699 946081 40530 59% 39 28178 1560 71%
c - 107.04 41 65 79 10700 948068 25284 60% 40 28178 1560 71%
c - 111.46 41 64 80 10702 972069 28874 65% 40 28178 1560 71%
c W 116.56 41 62 80 10702 990084 44424 68% 40 28178 1560 71%
c - 117.86 41 62 81 10702 996370 30742 68% 40 28178 1560 71%
c - 122.60 41 58 82 10712 1020971 32012 72% 39 28178 1560 71%
c ] 122.95 41 57 82 10714 1023010 33640 72% 39 28178 1560 71%
c { 122.95 41 16 82 10714 1023010 33640 28% 12 28178 1560 71%
c # 123.40 41 16 82 10880 1035085 40192 27% 12 28178 1560 71%
c - 123.78 41 16 83 10890 1045872 24744 27% 12 28178 1560 71%
c - 124.82 41 15 84 10994 1071074 22760 26% 12 28178 1560 71%
c B 125.22 41 15 84 11061 1081086 28849 26% 12 28178 1560 71%
c - 125.86 41 15 85 11882 1096578 23269 26% 12 28178 1560 71%
c - 126.77 41 15 86 12537 1122378 20035 26% 12 28178 1560 71%
c W 127.74 41 15 86 12631 1128089 22843 26% 11 28178 1560 71%
c - 128.62 41 14 87 12921 1148478 19565 25% 11 28178 1560 71%
c 
c  seconds   reductions         redundant   irredundant
c          MB      restarts            trail      variables
c           level        conflicts         glue        remaining
c 
c - 129.70 41 14 88 13506 1174879 19737 25% 11 28178 1560 71%
c F 129.75 41 14 88 13527 1176090 20418 25% 11 28178 1560 71%
c - 130.68 41 13 89 14474 1201579 19056 25% 11 28178 1560 71%
c B 131.59 41 13 89 15232 1225091 30044 24% 11 28178 1560 71%
c - 131.93 41 14 90 15875 1228580 19470 26% 11 28178 1560 71%
c s 131.96 41 14 90 15875 1228580 16907 26% 11 28178 1560 71%
c w 132.01 41 14 90 15875 1228580 16905 26% 11 28178 1560 71%
c - 133.18 41 15 91 16381 1255881 24790 25% 11 28178 1560 71%
c W 135.57 41 18 91 18131 1275093 39948 28% 12 28178 1560 71%
c - 136.00 41 18 92 18911 1283482 27482 29% 12 28178 1560 71%
c - 137.18 41 18 93 19864 1311384 24640 29% 12 28178 1560 71%
c # 137.74 41 17 93 19931 1326095 33671 29% 12 28178 1560 71%
c - 138.20 41 17 94 19998 1339584 24207 28% 12 28178 1560 71%
c - 139.39 41 16 95 20389 1368086 22867 27% 12 28178 1560 71%
c B 139.81 41 16 95 20459 1378098 28459 27% 12 28178 1560 71%
c - 140.52 41 15 96 20919 1396888 22652 27% 12 28178 1560 71%
c - 141.68 41 15 97 21669 1425990 22265 27% 12 28178 1560 71%
c W 142.77 41 15 97 21702 1431099 25024 27% 12 28178 1560 71%
c - 144.33 41 18 98 23810 1455390 25167 30% 13 28178 1560 71%
c - 145.72 41 18 99 24899 1485090 26687 30% 13 28178 1560 71%
c 
c  seconds   reductions         redundant   irredundant
c          MB      restarts            trail      variables
c           level        conflicts         glue        remaining
c 
c F 145.73 41 18 99 24899 1485100 26695 30% 13 28178 1560 71%
c - 146.88 41 17 100 25202 1515091 24788 29% 12 28178 1560 71%
c B 147.94 41 16 100 25598 1540102 38455 27% 12 28178 1560 71%
c - 148.20 41 16 101 25862 1545391 23863 28% 12 28178 1560 71%
c - 149.46 41 17 102 27060 1575992 25095 28% 12 28178 1560 71%
c W 151.23 41 16 102 27424 1596103 36659 27% 12 28178 1560 71%
c - 151.67 41 16 103 27632 1606892 24592 27% 12 28178 1560 71%
c - 153.16 41 15 104 27977 1638093 24806 25% 12 28178 1560 71%
c # 153.80 41 14 104 28154 1653109 32914 25% 12 28178 1560 71%
c - 154.52 41 14 105 28428 1669594 24599 24% 11 28178 1560 71%
c s 154.55 41 14 105 28428 1669594 20660 24% 11 28178 1560 71%
c w 154.60 41 14 105 28428 1669594 20658 24% 11 28178 1560 71%
c - 155.68 41 14 106 28903 1701395 23508 24% 11 28178 1560 71%
c B 156.05 41 14 106 29085 1711112 29186 24% 11 28178 1560 71%
c - 157.31 41 16 107 31164 1733495 27466 27% 12 28178 1560 71%
c - 158.58 41 15 108 31760 1765898 24930 26% 12 28178 1560 71%
c W 159.88 41 15 108 31813 1770113 26902 26% 12 28178 1560 71%
c - 161.06 41 15 109 32522 1798598 25269 26% 12 28178 1560 71%
c F 162.24 41 14 109 32887 1830114 43079 25% 11 28178 1560 71%
c - 162.32 41 14 110 32899 1831599 26238 25% 11 28178 1560 71%
c 
c  seconds    reductions         redundant   irredundant
c          MB       restarts            trail      variables
c           level         conflicts         glue        remaining
c 
c - 163.59 41 14 111 33353 1864901 25748 25% 11 28178 1560 71%
c B 164.63 41 13 111 33799 1891115 40000 25% 11 28178 1560 71%
c - 165.43 41 16 112 35268 1898501 28310 28% 12 28178 1560 71%
c - 166.85 41 16 113 36233 1932401 28074 27% 12 28178 1560 71%
c W 169.06 41 15 113 36470 1953116 39029 26% 12 28178 1560 71%
c - 169.76 41 15 114 36610 1966602 26370 26% 12 28178 1560 71%
c - 171.33 41 14 115 37211 2001102 24840 25% 11 28178 1560 71%
c # 171.94 41 14 115 37389 2016118 32216 25% 11 28178 1560 71%
c - 172.80 41 13 116 37909 2035903 24921 25% 11 28178 1560 71%
c } 173.23 41 13 116 38178 2047011 30427 25% 11 28178 1560 71%
c [ 173.23 41 57 116 38178 2047011 30427 72% 39 28178 1560 71%
c - 174.41 41 55 117 38188 2071004 30188 64% 35 28178 1560 71%
c I 174.83 41 52 117 38193 2080119 36648 61% 34 28178 1560 71%
c - 179.26 41 63 118 38197 2106406 40366 66% 41 28178 1560 71%
c - 188.36 55 72 119 38212 2142106 43665 71% 49 28178 1560 71%
c s 188.39 55 72 119 38212 2142106 38856 71% 49 28178 1560 71%
c w 188.57 55 72 119 38212 2142106 38856 71% 49 28178 1560 71%
c B 189.20 55 73 119 38213 2145121 41642 71% 50 28178 1560 71%
c - 197.01 56 75 120 38228 2178106 46184 75% 52 28178 1560 71%
c W 206.50 56 77 120 38229 2211122 76893 77% 53 28178 1560 71%
c 
c  seconds    reductions         redundant   irredundant
c          MB       restarts            trail      variables
c           level         conflicts         glue        remaining
c 
c - 207.70 56 77 121 38229 2214406 48844 77% 53 28178 1560 71%
c - 217.85 57 77 122 38230 2251006 52157 78% 53 28178 1560 71%
c O 224.89 57 77 122 38230 2278124 77686 80% 53 28178 1560 71%
c - 225.45 41 72 123 38230 2287906 51095 75% 50 28178 1560 71%
c - 228.05 47 58 124 38231 2325107 41413 61% 40 28178 1560 71%
c B 229.63 47 54 124 38231 2346125 57209 54% 37 28178 1560 71%
c - 231.88 47 77 125 38231 2362609 44512 58% 42 28178 1560 71%
c - 238.37 53 118 126 38231 2400410 48958 66% 49 28178 1560 71%
c W 243.11 53 130 126 38231 2415129 63016 69% 52 28178 1560 71%
c - 248.14 68 120 127 38238 2438511 51439 72% 54 28178 1560 71%
c - 259.09 68 107 128 38256 2476911 51456 76% 55 28178 1560 71%
c I 261.64 68 104 128 38260 2485131 58721 77% 55 28178 1560 71%
c - 267.99 68 117 129 38267 2515611 51919 78% 65 28178 1560 71%
c - 275.70 85 120 130 38284 2554611 50307 77% 69 28178 1560 71%
c B 275.96 85 120 130 38285 2556132 51743 77% 69 28178 1560 71%
c - 282.73 68 104 131 38294 2593911 47693 78% 63 28178 1560 71%
c W 292.63 68 92 131 38296 2628138 76570 79% 59 28178 1560 71%
c - 293.29 68 90 132 38300 2633511 48979 79% 58 28178 1560 71%
c - 299.26 68 74 133 38318 2673412 46770 80% 50 28178 1560 71%
c s 299.37 68 74 133 38318 2673412 46119 80% 50 28178 1560 71%
c 
c  seconds    reductions         redundant   irredundant
c          MB       restarts            trail      variables
c           level         conflicts         glue        remaining
c 
c w 299.55 68 74 133 38318 2673412 46106 80% 50 28178 1560 71%
c O 304.86 68 66 133 38325 2701139 68966 80% 47 28178 1560 71%
c - 306.85 68 63 134 38328 2713612 51382 80% 45 28178 1560 71%
c - 314.10 68 56 135 38347 2754113 50094 80% 42 28178 1560 71%
c B 318.04 68 53 135 38355 2775141 67463 80% 40 28178 1560 71%
c - 321.82 68 51 136 38357 2794913 52590 81% 40 28178 1560 71%
c - 329.69 68 49 137 38358 2836013 53278 81% 39 28178 1560 71%
c W 334.52 68 48 137 38358 2850142 66021 81% 38 28178 1560 71%
c - 341.07 68 47 138 38358 2877413 53548 81% 38 28178 1560 71%
c - 350.64 68 46 139 38373 2919114 56458 81% 38 28178 1560 71%
c I 352.42 68 46 139 38374 2926146 62340 81% 38 28178 1560 71%
c - 357.93 68 63 140 38389 2961114 55603 81% 45 28178 1560 71%
c B 367.89 68 72 140 38404 3003147 91583 80% 52 28178 1560 71%
c - 368.05 68 72 141 38404 3003415 53285 80% 52 28178 1560 71%
c - 380.29 68 72 142 38420 3046015 53837 81% 53 28178 1560 71%
c W 391.05 68 72 142 38421 3081148 83466 81% 54 28178 1560 71%
c - 393.98 68 72 143 38421 3088916 55844 81% 54 28178 1560 71%
c - 403.33 68 72 144 38442 3132117 57162 80% 54 28178 1560 71%
c O 408.41 68 71 144 38452 3160151 81301 80% 53 28178 1560 71%
c - 409.15 68 64 145 38453 3175617 53970 72% 47 28178 1560 71%
c 
c  seconds    reductions         redundant   irredundant
c          MB       restarts            trail      variables
c           level         conflicts         glue        remaining
c 
c - 412.33 68 51 146 38474 3219417 42930 53% 38 28178 1560 71%
c s 412.46 68 51 146 38474 3219417 42393 53% 38 28178 1560 71%
c w 412.63 68 51 146 38474 3219417 42382 53% 38 28178 1560 71%
c B 414.67 68 45 146 38482 3240154 55374 47% 34 28178 1560 71%
c - 417.63 68 53 147 38484 3263518 49661 54% 38 28178 1560 71%
c - 425.95 68 61 148 38485 3307918 55763 63% 44 28178 1560 71%
c W 431.60 68 62 148 38485 3321159 67524 65% 45 28178 1560 71%
c - 439.03 68 60 149 38485 3352618 59117 70% 44 28178 1560 71%
c - 449.02 68 59 150 38486 3397619 62251 74% 43 28178 1560 71%
c I 450.19 68 59 150 38486 3403160 67458 74% 43 28178 1560 71%
c - 458.95 94 124 151 38486 3442919 61122 76% 62 28178 1560 71%
c B 471.15 94 173 151 38486 3486162 101441 78% 79 28178 1560 71%
c - 472.35 95 172 152 38486 3488520 59168 78% 79 28178 1560 71%
c - 488.38 68 147 153 38487 3534420 61722 80% 78 28178 1560 71%
c W 502.73 68 132 153 38487 3570164 93687 81% 77 28178 1560 71%
c - 506.43 88 128 154 38487 3580623 61859 81% 76 28178 1560 71%
c - 521.93 88 114 155 38487 3627124 62408 82% 74 28178 1560 71%
c O 530.17 88 107 155 38487 3655165 86547 82% 72 28178 1560 71%
c - 531.17 88 92 156 38487 3673925 58581 72% 63 28178 1560 71%
c - 534.66 88 67 157 38487 3721025 47256 54% 45 28178 1560 71%
c 
c  seconds    reductions         redundant   irredundant
c          MB       restarts            trail      variables
c           level         conflicts         glue        remaining
c 
c B 536.99 88 72 157 38487 3741166 66230 59% 45 28178 1560 71%
c - 539.62 88 79 158 38495 3768425 55037 61% 44 28178 1560 71%
c - 548.96 88 69 159 38517 3816125 56672 69% 43 28178 1560 71%
c s 549.05 88 69 159 38517 3816125 53060 69% 43 28178 1560 71%
c w 549.23 88 69 159 38517 3816125 53059 69% 43 28178 1560 71%
c W 554.10 88 67 159 38518 3828169 63000 71% 43 28178 1560 71%
c - 560.58 88 60 160 38533 3864125 56881 74% 41 28178 1560 71%
c - 571.72 88 55 161 38549 3912426 61407 77% 41 28178 1560 71%
c I 572.62 88 55 161 38549 3916171 64494 77% 40 28178 1560 71%
c - 582.38 117 115 162 38556 3961028 63055 76% 72 28178 1560 71%
c B 594.26 117 127 162 38576 4005173 104701 78% 82 28178 1560 71%
c - 595.05 88 124 163 38579 4009928 62921 78% 80 28178 1560 71%
c ] 599.95 88 108 163 38583 4039561 89260 79% 71 28178 1560 71%
c ? 599.95 88 108 163 38583 4039561 89260 79% 71 28178 1560 71%
c 
c --- [ result ] -------------------------------------------------------------
c 
c UNKNOWN
c 
c --- [ run-time profiling ] -------------------------------------------------
c 
c process time taken by individual solving procedures
c (percentage relative to process time for solving)
c 
c       592.53   98.77% search
c       504.88   84.16% stable
c        59.99   10.00% unstable
c        27.66    4.61% walk
c         7.40    1.23% simplify
c         3.67    0.61% probe
c         1.09    0.18% vivify
c         0.66    0.11% subsume
c         0.54    0.09% ternary
c         0.22    0.04% elim
c         0.02    0.00% parse
c         0.00    0.00% lucky
c   =================================
c       599.93  100.00% solve
c 
c last line shows process time for solving
c (percentage relative to total process time)
c 
c --- [ statistics ] ---------------------------------------------------------
c 
c chronological:            624367        15.46 %  of conflicts
c conflicts:               4039561      6733.40    per second
c decisions:               5598813      9332.46    per second
c eliminated:                  468        21.30 %  of all variables
c fixed:                       169         7.69 %  of all variables
c learned:                 3993742        98.87 %  per conflict
c learned_lits:          404345841       100.00 %  learned literals
c minimized:                     0         0.00 %  learned literals
c shrunken:              158930343        39.31 %  learned literals
c minishrunken:           31330644         7.75 %  learned literals
c propagations:          465404676         0.78 M  per second
c reduced:                 2982087        73.82 %  per conflict
c rephased:                     89     45388.33    interval
c restarts:                  38583       104.70    interval
c stabilizing:                   6        66.21 %  of conflicts
c subsumed:                 920695        11.40 %  of all clauses
c strengthened:              19101         0.24 %  of all clauses
c vivified:                    242         0.00 %  of all clauses
c walked:                       28    144270.04    interval
c weakened:                  15043         2.40    average size
c 
c seconds are measured in process time for solving
c 
c --- [ resources ] ----------------------------------------------------------
c 
c total process time since initialization:       599.95    seconds
c total real time since initialization:          600.00    seconds
c maximum resident set size of process:          121.03    MB
c 
c --- [ shutting down ] ------------------------------------------------------
c 
c exit 0
